33D32945 STP File, STP Format Version 1.0

SECTION Comment
Name "wrp3-16-5s"
Creator "Bernd Zey"
Problem "Stochastic Steiner Tree Problem"
# Stochastic Steiner tree problem instance, base file: wrp3-16.stp
# weight-scaling on, factor=0.010000 (for "big-M" edges)
# parameters:
# distribution=equal
# selectRootRandomly=0
# probabilityTerminal=33
# probabilityNonTerminal=5
# 2nd stage edge-costs in [1.1000c_e, 1.3000c_e]
END

SECTION Graph
Nodes 204
Edges 374
Scenarios 5
Root 190
E 1 177 1
E 1 180 2
E 2 162 45
E 2 188 1
E 3 178 7
E 3 182 5
E 3 186 1
E 3 187 5
E 4 186 3
E 5 46 1
E 5 94 3
E 5 99 1
E 5 110 9
E 6 46 1
E 6 98 3
E 6 104 2
E 6 114 9
E 7 121 1
E 7 162 94
E 8 99 9
E 8 110 1
E 9 104 9
E 9 114 2
E 9 118 1
E 9 125 5
E 10 141 70
E 10 158 2
E 10 160 1
E 11 147 66
E 11 161 5
E 11 162 1
E 11 183 37
E 12 89 6
E 12 96 2
E 12 106 5
E 12 113 10
E 13 108 6
E 13 113 2
E 13 120 3
E 13 123 5
E 14 62 6
E 14 66 2
E 14 72 3
E 14 84 10
E 15 81 6
E 15 84 2
E 15 92 3
E 16 51 2
E 16 52 1
E 16 53 2
E 16 63 10
E 17 19 3
E 17 61 2
E 17 65 1
E 18 48 8
E 18 49 2
E 18 52 3
E 18 57 10
E 19 57 2
E 20 149 38
E 20 163 5
E 21 163 6
E 21 165 1
E 21 168 1
E 21 169 1
E 22 151 37
E 22 163 1
E 22 164 5
E 23 163 1
E 23 166 5
E 24 25 1
E 24 109 3
E 24 116 2
E 25 117 2
E 26 131 1
E 26 138 1
E 26 152 65
E 27 96 5
E 27 106 2
E 27 109 4
E 28 29 10
E 28 106 4
E 28 109 2
E 28 116 3
E 29 119 4
E 29 128 1
E 29 130 3
E 30 31 1
E 30 82 3
E 30 86 2
E 31 85 1
E 31 87 2
E 32 89 10
E 32 103 1
E 32 108 2
E 32 113 6
E 33 66 5
E 33 74 1
E 33 77 2
E 34 35 10
E 34 82 2
E 34 83 1
E 34 86 3
E 35 97 1
E 35 101 2
E 35 102 3
E 36 37 1
E 36 54 3
E 36 59 2
E 37 58 1
E 37 60 2
E 38 62 10
E 38 73 1
E 38 81 2
E 38 84 6
E 39 40 2
E 39 51 2
E 39 53 2
E 40 54 1
E 40 55 2
E 41 56 10
E 41 67 1
E 41 70 2
E 41 71 3
E 42 43 1
E 43 45 2
E 43 47 1
E 44 48 10
E 44 57 8
E 46 95 3
E 46 111 9
E 47 48 2
E 47 49 8
E 49 50 3
E 50 51 1
E 50 52 2
E 52 61 10
E 53 55 2
E 53 64 10
E 54 56 2
E 55 56 1
E 55 67 10
E 56 59 3
E 57 61 3
E 58 62 2
E 58 66 6
E 59 60 1
E 59 71 10
E 60 62 1
E 60 73 10
E 61 63 1
E 63 64 2
E 63 65 2
E 64 67 2
E 64 68 2
E 65 68 2
E 67 69 2
E 68 69 2
E 69 70 1
E 70 76 3
E 71 73 1
E 71 76 2
E 72 75 1
E 72 88 10
E 73 78 2
E 74 79 2
E 74 80 2
E 75 77 1
E 75 90 10
E 76 78 1
E 77 80 1
E 77 91 10
E 78 81 1
E 79 82 1
E 79 83 2
E 80 83 2
E 80 93 10
E 83 97 10
E 84 88 3
E 85 89 2
E 85 96 6
E 86 87 1
E 86 102 10
E 87 89 1
E 87 103 10
E 88 90 1
E 88 92 2
E 90 91 1
E 90 94 2
E 91 93 1
E 91 95 2
E 92 94 1
E 92 99 3
E 93 97 2
E 93 98 2
E 94 95 1
E 95 98 1
E 97 100 2
E 98 100 2
E 100 101 1
E 100 104 3
E 101 105 3
E 101 118 12
E 102 103 1
E 102 105 2
E 103 107 2
E 104 120 12
E 105 107 1
E 106 112 5
E 107 108 1
E 108 115 5
E 110 111 1
E 111 114 1
E 112 119 5
E 112 150 74
E 113 119 5
E 114 121 5
E 115 124 6
E 115 126 7
E 116 117 1
E 116 130 10
E 117 131 10
E 117 148 66
E 118 126 5
E 118 127 5
E 119 122 1
E 120 124 2
E 120 136 9
E 121 125 2
E 122 123 1
E 122 128 4
E 123 129 4
E 124 137 7
E 124 141 9
E 125 127 1
E 126 133 5
E 126 137 6
E 127 133 5
E 128 129 1
E 128 132 3
E 129 135 3
E 129 136 3
E 130 131 1
E 130 132 1
E 131 134 1
E 132 134 1
E 132 135 1
E 133 143 6
E 134 138 1
E 134 139 1
E 135 139 1
E 136 141 2
E 136 142 5
E 137 143 5
E 137 144 9
E 138 140 1
E 138 154 65
E 139 140 1
E 140 142 3
E 140 156 65
E 141 144 7
E 142 145 9
E 142 158 65
E 143 146 9
E 144 145 5
E 144 146 5
E 145 147 5
E 145 161 66
E 146 147 5
E 148 149 1
E 148 150 5
E 149 151 5
E 150 151 1
E 150 152 5
E 151 153 5
E 152 153 1
E 152 154 1
E 153 155 1
E 153 164 37
E 154 155 1
E 154 156 1
E 155 157 1
E 155 165 37
E 156 157 1
E 156 158 3
E 157 159 3
E 157 167 37
E 158 159 1
E 159 160 2
E 159 171 37
E 160 161 7
E 160 174 37
E 161 179 37
E 164 165 1
E 164 166 2
E 165 167 1
E 166 168 1
E 167 169 1
E 167 171 3
E 168 170 1
E 169 170 1
E 169 172 3
E 170 173 3
E 171 172 1
E 171 174 2
E 172 173 1
E 172 175 2
E 173 176 2
E 173 177 5
E 174 175 1
E 174 179 7
E 175 176 1
E 175 181 7
E 176 178 5
E 176 182 7
E 177 178 2
E 178 180 1
E 179 181 1
E 179 183 5
E 180 186 7
E 181 182 1
E 181 184 5
E 182 185 5
E 183 184 1
E 184 185 1
E 185 187 5
E 186 188 5
E 187 188 1
E 1 189 1000
E 2 189 1000
E 3 189 1000
E 4 189 1000
E 5 190 1000
E 6 190 1000
E 7 190 1000
E 8 190 1000
E 9 190 1000
E 10 191 1000
E 11 191 1000
E 12 192 1000
E 13 192 1000
E 14 193 1000
E 15 193 1000
E 16 194 1000
E 17 194 1000
E 18 195 1000
E 19 195 1000
E 20 196 1000
E 21 196 1000
E 22 196 1000
E 23 196 1000
E 24 197 1000
E 25 197 1000
E 26 197 1000
E 27 198 1000
E 28 198 1000
E 29 198 1000
E 30 199 1000
E 31 199 1000
E 32 199 1000
E 33 200 1000
E 34 200 1000
E 35 200 1000
E 36 201 1000
E 37 201 1000
E 38 201 1000
E 39 202 1000
E 40 202 1000
E 41 202 1000
E 42 203 1000
E 43 203 1000
E 44 203 1000
E 45 204 1000
E 46 190 1000
END

SECTION StochasticProbabilities
SP 0.19650 0.21430 0.21430 0.17850 0.19640
END

SECTION StochasticWeights
SE 2 2 2 2 2 
SE 3 3 3 3 3 
SE 50 58 50 52 50 
SE 2 2 2 2 2 
SE 8 8 8 9 8 
SE 6 6 6 6 6 
SE 2 2 2 2 2 
SE 6 6 6 6 6 
SE 4 4 4 4 4 
SE 2 2 2 2 2 
SE 4 4 4 4 4 
SE 2 2 2 2 2 
SE 10 11 10 11 10 
SE 2 2 2 2 2 
SE 4 4 4 4 4 
SE 3 3 3 3 3 
SE 11 10 10 10 10 
SE 2 2 2 2 2 
SE 117 113 104 114 106 
SE 11 11 10 11 10 
SE 2 2 2 2 2 
SE 10 10 11 10 11 
SE 3 3 3 3 3 
SE 2 2 2 2 2 
SE 6 6 6 6 6 
SE 78 89 80 85 79 
SE 3 3 3 3 3 
SE 2 2 2 2 2 
SE 82 79 76 76 84 
SE 6 6 6 6 6 
SE 2 2 2 2 2 
SE 41 47 48 47 41 
SE 7 7 7 7 7 
SE 3 3 3 3 3 
SE 6 6 6 6 6 
SE 12 11 11 12 12 
SE 7 7 7 7 7 
SE 3 3 3 3 3 
SE 4 4 4 4 4 
SE 6 6 6 6 6 
SE 7 7 7 7 7 
SE 3 3 3 3 3 
SE 4 4 4 4 4 
SE 13 11 12 12 11 
SE 7 7 7 7 7 
SE 3 3 3 3 3 
SE 4 4 4 4 4 
SE 3 3 3 3 3 
SE 2 2 2 2 2 
SE 3 3 3 3 3 
SE 12 12 12 12 12 
SE 4 4 4 4 4 
SE 3 3 3 3 3 
SE 2 2 2 2 2 
SE 10 10 9 10 9 
SE 3 3 3 3 3 
SE 4 4 4 4 4 
SE 12 12 13 12 11 
SE 3 3 3 3 3 
SE 48 44 45 44 42 
SE 6 6 6 6 6 
SE 7 7 7 7 7 
SE 2 2 2 2 2 
SE 2 2 2 2 2 
SE 2 2 2 2 2 
SE 41 47 44 48 41 
SE 2 2 2 2 2 
SE 6 6 6 6 6 
SE 2 2 2 2 2 
SE 6 6 6 6 6 
SE 2 2 2 2 2 
SE 4 4 4 4 4 
SE 3 3 3 3 3 
SE 3 3 3 3 3 
SE 2 2 2 2 2 
SE 2 2 2 2 2 
SE 74 74 72 78 77 
SE 6 6 6 6 6 
SE 3 3 3 3 3 
SE 5 5 5 5 5 
SE 12 11 11 12 13 
SE 5 5 5 5 5 
SE 3 3 3 3 3 
SE 4 4 4 4 4 
SE 5 5 5 5 5 
SE 2 2 2 2 2 
SE 4 4 4 4 4 
SE 2 2 2 2 2 
SE 4 4 4 4 4 
SE 3 3 3 3 3 
SE 2 2 2 2 2 
SE 3 3 3 3 3 
SE 12 13 11 12 12 
SE 2 2 2 2 2 
SE 3 3 3 3 3 
SE 7 7 7 7 7 
SE 6 6 6 6 6 
SE 2 2 2 2 2 
SE 3 3 3 3 3 
SE 11 13 12 11 12 
SE 3 3 3 3 3 
SE 2 2 2 2 2 
SE 4 4 4 4 4 
SE 2 2 2 2 2 
SE 3 3 3 3 3 
SE 4 4 4 4 4 
SE 2 2 2 2 2 
SE 4 4 4 4 4 
SE 3 3 3 3 3 
SE 2 2 2 2 2 
SE 3 3 3 3 3 
SE 11 13 12 13 12 
SE 2 2 2 2 2 
SE 3 3 3 3 3 
SE 7 7 7 7 7 
SE 3 3 3 3 3 
SE 3 3 3 3 3 
SE 3 3 3 3 3 
SE 2 2 2 2 2 
SE 3 3 3 3 3 
SE 13 11 11 11 13 
SE 2 2 2 2 2 
SE 3 3 3 3 3 
SE 4 4 4 4 4 
SE 2 2 2 2 2 
SE 3 3 3 3 3 
SE 2 2 2 2 2 
SE 11 11 12 11 13 
SE 10 9 9 9 10 
SE 4 4 4 4 4 
SE 11 10 10 10 10 
SE 3 3 3 3 3 
SE 9 9 10 9 9 
SE 4 4 4 4 4 
SE 2 2 2 2 2 
SE 3 3 3 3 3 
SE 13 13 11 12 11 
SE 3 3 3 3 3 
SE 13 12 12 12 12 
SE 3 3 3 3 3 
SE 2 2 2 2 2 
SE 12 12 11 12 12 
SE 4 4 4 4 4 
SE 4 4 4 4 4 
SE 3 3 3 3 3 
SE 7 7 7 7 7 
SE 2 2 2 2 2 
SE 13 13 11 11 11 
SE 2 2 2 2 2 
SE 12 11 12 11 11 
SE 2 2 2 2 2 
SE 3 3 3 3 3 
SE 3 3 3 3 3 
SE 3 3 3 3 3 
SE 3 3 3 3 3 
SE 3 3 3 3 3 
SE 3 3 3 3 3 
SE 3 3 3 3 3 
SE 2 2 2 2 2 
SE 4 4 4 4 4 
SE 2 2 2 2 2 
SE 3 3 3 3 3 
SE 2 2 2 2 2 
SE 11 13 11 13 12 
SE 3 3 3 3 3 
SE 3 3 3 3 3 
SE 3 3 3 3 3 
SE 2 2 2 2 2 
SE 12 12 11 12 12 
SE 2 2 2 2 2 
SE 2 2 2 2 2 
SE 12 12 11 13 12 
SE 2 2 2 2 2 
SE 2 2 2 2 2 
SE 3 3 3 3 3 
SE 3 3 3 3 3 
SE 11 12 13 12 12 
SE 13 11 13 13 13 
SE 4 4 4 4 4 
SE 3 3 3 3 3 
SE 7 7 7 7 7 
SE 2 2 2 2 2 
SE 11 13 13 12 12 
SE 2 2 2 2 2 
SE 12 12 13 13 12 
SE 2 2 2 2 2 
SE 3 3 3 3 3 
SE 2 2 2 2 2 
SE 3 3 3 3 3 
SE 2 2 2 2 2 
SE 3 3 3 3 3 
SE 2 2 2 2 2 
SE 4 4 4 4 4 
SE 3 3 3 3 3 
SE 3 3 3 3 3 
SE 2 2 2 2 2 
SE 2 2 2 2 2 
SE 3 3 3 3 3 
SE 3 3 3 3 3 
SE 2 2 2 2 2 
SE 4 4 4 4 4 
SE 4 4 4 4 4 
SE 14 14 14 14 14 
SE 2 2 2 2 2 
SE 3 3 3 3 3 
SE 3 3 3 3 3 
SE 15 15 14 15 14 
SE 2 2 2 2 2 
SE 6 6 6 6 6 
SE 2 2 2 2 2 
SE 6 6 6 6 6 
SE 2 2 2 2 2 
SE 2 2 2 2 2 
SE 6 6 6 6 6 
SE 86 82 86 82 96 
SE 6 6 6 6 6 
SE 6 6 6 6 6 
SE 7 7 7 7 7 
SE 8 8 9 8 8 
SE 2 2 2 2 2 
SE 12 11 13 13 13 
SE 12 13 11 13 13 
SE 81 74 77 83 73 
SE 6 6 6 6 6 
SE 6 6 6 6 6 
SE 2 2 2 2 2 
SE 3 3 3 3 3 
SE 11 11 10 11 10 
SE 3 3 3 3 3 
SE 2 2 2 2 2 
SE 5 5 5 5 5 
SE 5 5 5 5 5 
SE 8 8 8 9 8 
SE 10 11 11 10 10 
SE 2 2 2 2 2 
SE 6 6 6 6 6 
SE 7 7 7 7 7 
SE 6 6 6 6 6 
SE 2 2 2 2 2 
SE 4 4 4 4 4 
SE 4 4 4 4 4 
SE 4 4 4 4 4 
SE 2 2 2 2 2 
SE 2 2 2 2 2 
SE 2 2 2 2 2 
SE 2 2 2 2 2 
SE 2 2 2 2 2 
SE 7 7 7 7 7 
SE 2 2 2 2 2 
SE 2 2 2 2 2 
SE 2 2 2 2 2 
SE 3 3 3 3 3 
SE 6 6 6 6 6 
SE 6 6 6 6 6 
SE 10 10 10 11 10 
SE 2 2 2 2 2 
SE 78 82 72 75 82 
SE 2 2 2 2 2 
SE 4 4 4 4 4 
SE 76 73 78 79 74 
SE 8 9 8 8 8 
SE 10 10 10 10 10 
SE 72 72 83 81 75 
SE 10 10 10 10 10 
SE 6 6 6 6 6 
SE 6 6 6 6 6 
SE 6 6 6 6 6 
SE 77 75 75 75 78 
SE 6 6 6 6 6 
SE 2 2 2 2 2 
SE 6 6 6 6 6 
SE 6 6 6 6 6 
SE 2 2 2 2 2 
SE 6 6 6 6 6 
SE 6 6 6 6 6 
SE 2 2 2 2 2 
SE 2 2 2 2 2 
SE 2 2 2 2 2 
SE 41 47 41 42 44 
SE 2 2 2 2 2 
SE 2 2 2 2 2 
SE 2 2 2 2 2 
SE 48 41 44 46 46 
SE 2 2 2 2 2 
SE 4 4 4 4 4 
SE 4 4 4 4 4 
SE 46 46 41 41 47 
SE 2 2 2 2 2 
SE 3 3 3 3 3 
SE 44 42 41 41 45 
SE 8 8 8 8 8 
SE 46 44 46 43 42 
SE 45 43 44 48 43 
SE 2 2 2 2 2 
SE 3 3 3 3 3 
SE 2 2 2 2 2 
SE 2 2 2 2 2 
SE 2 2 2 2 2 
SE 4 4 4 4 4 
SE 2 2 2 2 2 
SE 2 2 2 2 2 
SE 4 4 4 4 4 
SE 4 4 4 4 4 
SE 2 2 2 2 2 
SE 3 3 3 3 3 
SE 2 2 2 2 2 
SE 3 3 3 3 3 
SE 3 3 3 3 3 
SE 6 6 6 6 6 
SE 2 2 2 2 2 
SE 8 8 8 8 8 
SE 2 2 2 2 2 
SE 8 8 8 8 8 
SE 6 6 6 6 6 
SE 9 8 9 8 8 
SE 3 3 3 3 3 
SE 2 2 2 2 2 
SE 2 2 2 2 2 
SE 6 6 6 6 6 
SE 9 9 9 8 8 
SE 2 2 2 2 2 
SE 6 6 6 6 6 
SE 6 6 6 6 6 
SE 2 2 2 2 2 
SE 2 2 2 2 2 
SE 6 6 6 6 6 
SE 6 6 6 6 6 
SE 2 2 2 2 2 
SE 1150 1294 1239 1131 1206 
SE 1243 1223 1129 1172 1218 
SE 1152 1283 1160 1110 1176 
SE 1104 1262 1155 1165 1183 
SE 1296 1275 1186 1230 1188 
SE 1110 1179 1184 1141 1132 
SE 1165 1140 1152 1184 1218 
SE 1198 1135 1228 1164 1238 
SE 1193 1122 1247 1106 1111 
SE 1103 1116 1273 1185 1294 
SE 1146 1201 1140 1287 1210 
SE 1119 1114 1186 1150 1239 
SE 1160 1134 1163 1259 1131 
SE 1164 1172 1175 1208 1253 
SE 1230 1109 1270 1174 1191 
SE 1254 1262 1254 1233 1141 
SE 1263 1180 1192 1141 1249 
SE 1293 1205 1255 1151 1202 
SE 1147 1124 1180 1160 1300 
SE 1102 1214 1159 1104 1116 
SE 1150 1144 1107 1196 1118 
SE 1130 1271 1273 1257 1138 
SE 1136 1217 1226 1133 1255 
SE 1114 1155 1237 1118 1286 
SE 1122 1210 1129 1177 1277 
SE 1128 1240 1106 1130 1132 
SE 1221 1274 1167 1103 1297 
SE 1139 1148 1235 1299 1166 
SE 1264 1189 1241 1274 1217 
SE 1226 1101 1167 1128 1134 
SE 1113 1194 1124 1127 1260 
SE 1264 1182 1180 1256 1274 
SE 1168 1174 1196 1150 1253 
SE 1165 1176 1135 1288 1286 
SE 1269 1144 1185 1120 1156 
SE 1113 1148 1282 1280 1140 
SE 1126 1255 1169 1280 1117 
SE 1284 1134 1237 1154 1274 
SE 1161 1133 1159 1294 1228 
SE 1169 1278 1266 1236 1129 
SE 1237 1100 1160 1190 1267 
SE 1157 1234 1200 1231 1137 
SE 1188 1242 1151 1287 1218 
SE 1297 1135 1223 1299 1249 
SE 1221 1256 1275 1289 1240 
SE 1268 1251 1272 1160 1259 
END

SECTION StochasticTerminals
ST 1 0 0 0 0 0 
ST 2 0 0 0 0 0 
ST 3 0 0 0 0 0 
ST 4 0 0 0 0 0 
ST 5 0 0 0 0 1 
ST 6 0 0 0 0 0 
ST 7 0 0 0 0 0 
ST 8 0 0 0 0 0 
ST 9 0 0 0 0 0 
ST 10 0 0 0 1 0 
ST 11 0 0 0 0 0 
ST 12 0 0 0 0 0 
ST 13 0 0 0 0 0 
ST 14 0 0 0 0 0 
ST 15 0 0 0 0 0 
ST 16 0 0 0 0 0 
ST 17 0 0 1 0 0 
ST 18 0 0 0 0 0 
ST 19 0 0 0 0 0 
ST 20 0 0 0 0 0 
ST 21 0 0 0 0 0 
ST 22 0 0 0 0 0 
ST 23 0 0 0 0 0 
ST 24 0 0 0 0 0 
ST 25 0 0 0 0 0 
ST 26 0 0 0 1 0 
ST 27 0 0 1 0 0 
ST 28 0 0 0 0 0 
ST 29 0 0 0 0 0 
ST 30 0 0 0 0 0 
ST 31 0 0 0 0 0 
ST 32 0 0 1 0 0 
ST 33 0 0 0 0 0 
ST 34 0 0 0 0 0 
ST 35 0 0 0 0 0 
ST 36 0 0 0 0 0 
ST 37 0 0 0 0 0 
ST 38 0 0 0 0 0 
ST 39 0 0 0 0 0 
ST 40 1 0 0 0 0 
ST 41 0 0 0 0 0 
ST 42 0 0 0 0 0 
ST 43 0 0 0 1 0 
ST 44 0 0 0 0 0 
ST 45 0 0 0 0 0 
ST 46 0 0 0 0 0 
ST 47 0 1 0 0 0 
ST 48 0 0 0 0 0 
ST 49 0 0 0 0 1 
ST 50 0 0 0 0 0 
ST 51 0 0 0 0 1 
ST 52 0 0 0 0 0 
ST 53 0 0 0 0 0 
ST 54 0 0 0 0 0 
ST 55 0 0 0 0 0 
ST 56 0 0 0 1 0 
ST 57 0 0 0 0 0 
ST 58 0 0 0 0 0 
ST 59 0 0 0 0 0 
ST 60 0 0 0 0 0 
ST 61 0 0 0 0 0 
ST 62 0 0 0 0 0 
ST 63 0 0 0 0 0 
ST 64 0 0 0 0 0 
ST 65 0 0 0 0 0 
ST 66 1 1 0 0 0 
ST 67 0 0 0 0 0 
ST 68 0 0 0 0 0 
ST 69 1 0 0 0 0 
ST 70 0 0 0 0 0 
ST 71 0 0 0 0 0 
ST 72 0 0 0 0 0 
ST 73 0 0 0 0 0 
ST 74 0 0 0 0 0 
ST 75 0 0 0 0 0 
ST 76 0 1 0 0 0 
ST 77 0 0 0 0 0 
ST 78 0 0 0 0 0 
ST 79 0 0 0 0 0 
ST 80 0 0 0 0 0 
ST 81 0 0 0 0 0 
ST 82 0 0 0 0 0 
ST 83 0 0 0 0 0 
ST 84 0 0 0 0 0 
ST 85 0 0 0 0 0 
ST 86 0 0 0 0 0 
ST 87 0 0 0 0 0 
ST 88 0 0 0 0 0 
ST 89 0 0 0 0 0 
ST 90 0 0 0 0 0 
ST 91 0 0 0 0 0 
ST 92 0 0 0 0 0 
ST 93 0 0 0 0 0 
ST 94 0 0 0 0 0 
ST 95 0 0 0 0 0 
ST 96 0 1 0 0 0 
ST 97 0 0 0 0 0 
ST 98 0 0 0 1 0 
ST 99 0 0 0 0 0 
ST 100 0 0 0 1 0 
ST 101 0 0 0 0 0 
ST 102 0 0 0 0 0 
ST 103 0 0 0 0 0 
ST 104 0 0 0 0 0 
ST 105 0 0 0 0 1 
ST 106 0 0 0 1 0 
ST 107 0 0 0 0 0 
ST 108 1 0 1 0 0 
ST 109 0 0 0 1 0 
ST 110 0 0 0 0 0 
ST 111 0 0 0 0 0 
ST 112 0 0 0 0 0 
ST 113 0 0 0 0 0 
ST 114 0 0 0 0 0 
ST 115 0 0 0 0 0 
ST 116 0 0 0 0 0 
ST 117 0 0 0 0 0 
ST 118 0 0 0 0 0 
ST 119 0 0 0 0 0 
ST 120 0 0 0 0 0 
ST 121 0 0 0 0 0 
ST 122 0 0 0 0 0 
ST 123 0 0 0 0 0 
ST 124 0 0 0 0 0 
ST 125 0 1 0 0 0 
ST 126 0 0 0 0 0 
ST 127 0 0 0 0 0 
ST 128 0 0 0 0 0 
ST 129 0 0 0 0 0 
ST 130 1 0 0 0 0 
ST 131 0 0 0 0 0 
ST 132 0 0 0 0 0 
ST 133 0 0 0 0 0 
ST 134 0 0 0 0 0 
ST 135 0 0 0 0 0 
ST 136 0 0 0 0 0 
ST 137 0 0 0 1 0 
ST 138 0 0 0 0 0 
ST 139 0 0 0 0 0 
ST 140 1 0 0 1 0 
ST 141 0 0 0 0 0 
ST 142 0 0 0 0 0 
ST 143 0 0 0 1 0 
ST 144 0 0 0 0 1 
ST 145 0 0 0 0 0 
ST 146 0 0 0 0 0 
ST 147 0 0 0 0 0 
ST 148 0 0 0 0 0 
ST 149 0 0 0 0 0 
ST 150 0 0 0 0 1 
ST 151 0 0 0 0 0 
ST 152 1 0 1 0 0 
ST 153 0 0 0 0 0 
ST 154 0 0 0 0 0 
ST 155 1 0 0 0 0 
ST 156 0 0 0 0 0 
ST 157 0 0 0 0 0 
ST 158 0 0 0 0 0 
ST 159 0 0 0 0 0 
ST 160 0 0 0 0 0 
ST 161 0 0 0 0 0 
ST 162 0 0 0 0 0 
ST 163 0 0 0 0 0 
ST 164 0 0 0 0 1 
ST 165 0 0 0 0 0 
ST 166 0 0 0 0 0 
ST 167 0 0 0 0 0 
ST 168 0 0 0 0 0 
ST 169 0 0 0 0 1 
ST 170 0 0 0 0 0 
ST 171 0 0 0 0 0 
ST 172 0 1 0 0 0 
ST 173 0 0 0 0 0 
ST 174 0 0 0 0 0 
ST 175 0 0 0 0 0 
ST 176 0 0 0 0 0 
ST 177 0 0 0 1 1 
ST 178 0 0 0 0 0 
ST 179 0 0 0 0 0 
ST 180 0 0 0 0 0 
ST 181 0 0 0 0 0 
ST 182 0 0 0 0 0 
ST 183 0 0 0 0 0 
ST 184 0 0 0 0 0 
ST 185 0 0 0 0 0 
ST 186 0 0 0 0 0 
ST 187 0 1 0 0 0 
ST 188 0 0 0 0 0 
ST 189 0 0 0 1 0 
ST 190 1 1 1 1 1 
ST 191 0 0 0 0 1 
ST 192 1 0 0 0 0 
ST 193 1 0 0 0 1 
ST 194 0 0 0 0 0 
ST 195 0 1 0 1 1 
ST 196 1 0 1 0 1 
ST 197 1 0 1 0 0 
ST 198 0 1 1 0 0 
ST 199 0 1 0 0 0 
ST 200 0 1 0 0 0 
ST 201 0 1 0 0 0 
ST 202 1 0 0 0 0 
ST 203 1 0 0 0 0 
ST 204 0 1 1 0 0 
END


SECTION Coordinates
DD 1 16449 15001
DD 2 16464 15001
DD 3 16458 15000
DD 4 16458 15004
DD 5 16449 14860
DD 6 16449 14862
DD 7 16464 14862
DD 8 16458 14859
DD 9 16458 14864
DD 10 16451 14955
DD 11 16463 14956
DD 12 16434 14876
DD 13 16446 14876
DD 14 16434 14856
DD 15 16446 14856
DD 16 16434 14840
DD 17 16446 14839
DD 18 16434 14836
DD 19 16446 14836
DD 20 16434 14994
DD 21 16445 14994
DD 22 16439 14993
DD 23 16439 14995
DD 24 16432 14888
DD 25 16432 14889
DD 26 16444 14890
DD 27 16432 14881
DD 28 16434 14885
DD 29 16444 14885
DD 30 16432 14868
DD 31 16432 14869
DD 32 16444 14870
DD 33 16432 14861
DD 34 16434 14865
DD 35 16444 14865
DD 36 16432 14848
DD 37 16432 14849
DD 38 16444 14850
DD 39 16432 14842
DD 40 16432 14844
DD 41 16444 14845
DD 42 16432 14826
DD 43 16432 14827
DD 44 16444 14828
DD 45 16430 14827
DD 46 16449 14861
DD 47 16432 14828
DD 48 16434 14828
DD 49 16432 14836
DD 50 16432 14839
DD 51 16432 14840
DD 52 16434 14839
DD 53 16434 14842
DD 54 16432 14845
DD 55 16434 14844
DD 56 16434 14845
DD 57 16444 14836
DD 58 16432 14850
DD 59 16434 14848
DD 60 16434 14849
DD 61 16444 14839
DD 62 16434 14850
DD 63 16444 14840
DD 64 16444 14842
DD 65 16446 14840
DD 66 16432 14856
DD 67 16444 14844
DD 68 16446 14842
DD 69 16446 14844
DD 70 16446 14845
DD 71 16444 14848
DD 72 16434 14859
DD 73 16444 14849
DD 74 16432 14862
DD 75 16434 14860
DD 76 16446 14848
DD 77 16434 14861
DD 78 16446 14849
DD 79 16432 14864
DD 80 16434 14862
DD 81 16446 14850
DD 82 16432 14865
DD 83 16434 14864
DD 84 16444 14856
DD 85 16432 14870
DD 86 16434 14868
DD 87 16434 14869
DD 88 16444 14859
DD 89 16434 14870
DD 90 16444 14860
DD 91 16444 14861
DD 92 16446 14859
DD 93 16444 14862
DD 94 16446 14860
DD 95 16446 14861
DD 96 16432 14876
DD 97 16444 14864
DD 98 16446 14862
DD 99 16449 14859
DD 100 16446 14864
DD 101 16446 14865
DD 102 16444 14868
DD 103 16444 14869
DD 104 16449 14864
DD 105 16446 14868
DD 106 16434 14881
DD 107 16446 14869
DD 108 16446 14870
DD 109 16432 14885
DD 110 16458 14860
DD 111 16458 14861
DD 112 16439 14881
DD 113 16444 14876
DD 114 16458 14862
DD 115 16451 14870
DD 116 16434 14888
DD 117 16434 14889
DD 118 16458 14865
DD 119 16444 14881
DD 120 16449 14876
DD 121 16463 14862
DD 122 16445 14881
DD 123 16446 14881
DD 124 16451 14876
DD 125 16463 14864
DD 126 16458 14870
DD 127 16463 14865
DD 128 16445 14885
DD 129 16446 14885
DD 130 16444 14888
DD 131 16444 14889
DD 132 16445 14888
DD 133 16463 14870
DD 134 16445 14889
DD 135 16446 14888
DD 136 16449 14885
DD 137 16458 14876
DD 138 16445 14890
DD 139 16446 14889
DD 140 16446 14890
DD 141 16451 14885
DD 142 16449 14890
DD 143 16463 14876
DD 144 16458 14885
DD 145 16458 14890
DD 146 16463 14885
DD 147 16463 14890
DD 148 16434 14955
DD 149 16434 14956
DD 150 16439 14955
DD 151 16439 14956
DD 152 16444 14955
DD 153 16444 14956
DD 154 16445 14955
DD 155 16445 14956
DD 156 16446 14955
DD 157 16446 14956
DD 158 16449 14955
DD 159 16449 14956
DD 160 16451 14956
DD 161 16458 14956
DD 162 16464 14956
DD 163 16439 14994
DD 164 16444 14993
DD 165 16445 14993
DD 166 16444 14995
DD 167 16446 14993
DD 168 16445 14995
DD 169 16446 14994
DD 170 16446 14995
DD 171 16449 14993
DD 172 16449 14994
DD 173 16449 14995
DD 174 16451 14993
DD 175 16451 14994
DD 176 16451 14995
DD 177 16449 15000
DD 178 16451 15000
DD 179 16458 14993
DD 180 16451 15001
DD 181 16458 14994
DD 182 16458 14995
DD 183 16463 14993
DD 184 16463 14994
DD 185 16463 14995
DD 186 16458 15001
DD 187 16463 15000
DD 188 16463 15001
DD 189 16449 15001
DD 190 16464 15001
DD 191 16458 15000
DD 192 16458 15004
DD 193 16449 14860
DD 194 16449 14862
DD 195 16464 14862
DD 196 16458 14859
DD 197 16458 14864
DD 198 16451 14955
DD 199 16463 14956
DD 200 16434 14876
DD 201 16446 14876
DD 202 16434 14856
DD 203 16446 14856
DD 204 16434 14840
END

EOF
